SCIP Status        : solving was interrupted [time limit reached]
Total Time         :    3600.00
  solving          :    3600.00
  presolving       :       0.33 (included in solving)
  reading          :       0.00
  copying          :       0.67 (31 #copies) (minimal 0.00, maximal 0.05, average 0.02)
Original Problem   :
  Problem name     : bbbenchmark/g05_80.0.cut
  Variables        : 81 (80 binary, 0 integer, 0 implicit integer, 1 continuous)
  Constraints      : 1 initial, 1 maximal
  Objective        : minimize, 1 non-zeros (abs.min = 1, abs.max = 1)
Presolved Problem  :
  Problem name     : t_bbbenchmark/g05_80.0.cut
  Variables        : 1609 (80 binary, 0 integer, 1527 implicit integer, 2 continuous)
  Constraints      : 1531 initial, 5810 maximal
  Objective        : minimize, 1 non-zeros (abs.min = 1, abs.max = 1)
  Nonzeros         : 6301 constraint, 162 clique table
Presolvers         :   ExecTime  SetupTime  Calls  FixedVars   AggrVars   ChgTypes  ChgBounds   AddHoles    DelCons    AddCons   ChgSides   ChgCoefs
  boundshift       :       0.00       0.00      0          0          0          0          0          0          0          0          0          0
  convertinttobin  :       0.00       0.00      0          0          0          0          0          0          0          0          0          0
  domcol           :       0.00       0.00      1          0          0          0          0          0          0          0          0          0
  dualagg          :       0.00       0.00      0          0          0          0          0          0          0          0          0          0
  dualcomp         :       0.00       0.00      1          0          0          0          0          0          0          0          0          0
  dualinfer        :       0.00       0.00      0          0          0          0          0          0          0          0          0          0
  dualsparsify     :       0.00       0.00      1          0          0          0          0          0          0          0          0          0
  gateextraction   :       0.00       0.00      0          0          0          0          0          0          0          0          0          0
  implics          :       0.00       0.00      2          0          0          0          0          0          0          0          0          0
  inttobinary      :       0.00       0.00      0          0          0          0          0          0          0          0          0          0
  qpkktref         :       0.00       0.00      0          0          0          0          0          0          0          0          0          0
  redvub           :       0.00       0.00      0          0          0          0          0          0          0          0          0          0
  sparsify         :       0.00       0.00      1          0          0          0          0          0          0          0          0          0
  stuffing         :       0.00       0.00      0          0          0          0          0          0          0          0          0          0
  trivial          :       0.00       0.00      4          0          0          0          0          0          0          0          0          0
  tworowbnd        :       0.00       0.00      0          0          0          0          0          0          0          0          0          0
  dualfix          :       0.00       0.00      4          0          0          0          0          0          0          0          0          0
  genvbounds       :       0.00       0.00      0          0          0          0          0          0          0          0          0          0
  probing          :       0.21       0.00      1          0          0          0          0          0          0          0          0          0
  pseudoobj        :       0.00       0.00      1          0          0          0          1          0          0          0          0          0
  symmetry         :       0.00       0.00      0          0          0          0          0          0          0          0          0          0
  vbounds          :       0.00       0.00      1          0          0          0          0          0          0          0          0          0
  varbound         :       0.00       0.00      2          0          0          0          0          0          0          0          0          0
  and              :       0.01       0.01      2          0          0          0          0          0          0          0          0          0
  linear           :       0.00       0.00      2          0          0          0          0          0          0          0          0          0
  logicor          :       0.00       0.00      0          0          0          0          0          0          0          0          0          0
  bounddisjunction :       0.00       0.00      0          0          0          0          0          0          0          0          0          0
  nonlinear        :       0.11       0.01      5          0          0          0          1          0          0       1530          0          0
  benders          :       0.00       0.00      0          0          0          0          0          0          0          0          0          0
  components       :       0.00       0.00      1          0          0          0          0          0          0          0          0          0
  root node        :          -          -      -          0          -          -         27          -          -          -          -          -
Constraints        :     Number  MaxNumber  #Separate #Propagate    #EnfoLP    #EnfoRelax  #EnfoPS    #Check   #ResProp    Cutoffs    DomReds       Cuts    Applied      Conss   Children
  benderslp        :          0          0          0          0      97983          0          0       3196          0          0          0          0          0          0          0
  integral         :          0          0          0          0      97983          0          0       3196          0          0       3311          0          0       1478     193508
  varbound         :          1          1         22       7266          0          0          0         40          0          0        132          0          0          0          0
  and              :       1527       1527     125690     654494         15          0          0         40     212896          1    3430574      27424      26954          0          0
  linear           :          3          3         22     654496         15          0          0         38          3          0      13647          0          0          0          0
  logicor          :          0+      4279          0     168788          0          0          0          0        204        534         54          0          0          0          0
  bounddisjunction :          0+         5          0        865          0          0          0          0          0          0          0          0          0          0          0
  benders          :          0          0          0          0         15          0          0         36          0          0          0          0          0          0          0
  countsols        :          0          0          0          0         15          0          0         36          0          0          0          0          0          0          0
  components       :          0          0          0          0          0          0          0          0          0          0          0          0          0          0          0
Constraint Timings :  TotalTime  SetupTime   Separate  Propagate     EnfoLP     EnfoPS     EnfoRelax   Check    ResProp    SB-Prop
  benderslp        :       0.13       0.00       0.00       0.00       0.13       0.00       0.00       0.00       0.00       0.00
  integral         :      42.66       0.00       0.00       0.00      42.66       0.00       0.00       0.00       0.00       0.00
  varbound         :       0.02       0.00       0.00       0.02       0.00       0.00       0.00       0.00       0.00       0.00
  and              :      76.34       0.01      51.83      23.87       0.00       0.00       0.00       0.03       0.16       0.44
  linear           :       0.62       0.00       0.01       0.60       0.00       0.00       0.00       0.00       0.00       0.01
  logicor          :       6.48       0.00       0.00       6.46       0.00       0.00       0.00       0.00       0.00       0.02
  bounddisjunction :       0.03       0.00       0.00       0.03       0.00       0.00       0.00       0.00       0.00       0.00
  benders          :       0.00       0.00       0.00       0.00       0.00       0.00       0.00       0.00       0.00       0.00
  countsols        :       0.00       0.00       0.00       0.00       0.00       0.00       0.00       0.00       0.00       0.00
  components       :       0.13       0.00       0.00       0.13       0.00       0.00       0.00       0.00       0.00       0.00
Propagators        : #Propagate   #ResProp    Cutoffs    DomReds
  dualfix          :          4          0          0          0
  genvbounds       :          0          0          0          0
  nlobbt           :          0          0          0          0
  obbt             :          0          0          0          0
  probing          :          0          0          0          0
  pseudoobj        :     456597          0          0         27
  redcost          :     244991          0          0     138500
  rootredcost      :         25          0          0          0
  symmetry         :          0          0          0          0
  vbounds          :      58782          0          0          0
Propagator Timings :  TotalTime  SetupTime   Presolve  Propagate    ResProp    SB-Prop
  dualfix          :       0.00       0.00       0.00       0.00       0.00       0.00
  genvbounds       :       0.41       0.00       0.00       0.41       0.00       0.00
  nlobbt           :       0.00       0.00       0.00       0.00       0.00       0.00
  obbt             :       0.00       0.00       0.00       0.00       0.00       0.00
  probing          :       0.21       0.00       0.21       0.00       0.00       0.00
  pseudoobj        :       0.66       0.00       0.00       0.66       0.00       0.00
  redcost          :       9.86       0.00       0.00       9.86       0.00       0.00
  rootredcost      :       0.44       0.00       0.00       0.44       0.00       0.00
  symmetry         :       0.30       0.00       0.00       0.30       0.00       0.00
  vbounds          :       0.35       0.00       0.00       0.35       0.00       0.00
Conflict Analysis  :       Time      Calls    Success    DomReds  Conflicts   Literals    Reconvs ReconvLits   Dualrays   Nonzeros   LP Iters   (pool size: [10000,10000])
  propagation      :       0.00        535        444          -        505       43.6          0        0.0          -          -          -
  infeasible LP    :       0.00          0          0          -          0        0.0          0        0.0          0        0.0          0
  bound exceed. LP :      10.72       9483       6031          -      71891       65.2          0        0.0          0        0.0      28722
  strong branching :       0.00          0          0          -          0        0.0          0        0.0          -          -          0
  pseudo solution  :       0.00          0          0          -          0        0.0          0        0.0          -          -          -
  applied globally :       0.23          -          -          0      22488       68.4          -          -          0          -          -
  applied locally  :          -          -          -          0          0        0.0          -          -          0          -          -
Separators         :   ExecTime  SetupTime      Calls  RootCalls    Cutoffs    DomReds  FoundCuts ViaPoolAdd  DirectAdd    Applied ViaPoolApp  DirectApp      Conss
  cut pool         :       2.58          -      26446         44          -          -      34397     592891          -          -          -          -          -    (maximal pool size:       2038)
  aggregation      :      13.20       0.00       4412         22          0          0        347       2173          0        483        483          0          0
  > cmir           :          -          -          -          -          -          -          -       2173          0        483        483          0          -
  > flowcover      :          -          -          -          -          -          -          -          0          0          0          0          0          -
  > knapsackcover  :          -          -          -          -          -          -          -          0          0          0          0          0          -
  cgmip            :       0.00       0.00          0          0          0          0          0          0          0          0          0          0          0
  clique           :       0.00       0.00         22         22          0          0          0          0          0          0          0          0          0
  closecuts        :       0.00       0.00          0          0          0          0          0          0          0          0          0          0          0
  convexproj       :       0.00       0.00          0          0          0          0          0          0          0          0          0          0          0
  disjunctive      :       0.00       0.00          0          0          0          0          0          0          0          0          0          0          0
  eccuts           :       0.00       0.00          0          0          0          0          0          0          0          0          0          0          0
  gauge            :       0.00       0.00          0          0          0          0          0          0          0          0          0          0          0
  gomory           :       0.00       0.00          0          0          0          0          0          0          0          0          0          0          0
  > gomorymi       :          -          -          -          -          -          -          -          0          0          0          0          0          -
  > strongcg       :          -          -          -          -          -          -          -          0          0          0          0          0          -
  impliedbounds    :       0.12       0.00       4412         22          0          0          2          1          0          1          1          0          0
  interlattice     :       0.00       0.00          0          0          0          0          0          0          0          0          0          0          0
  interminor       :       0.00       0.00          0          0          0          0          0          0          0          0          0          0          0
  intersub         :       0.03       0.00          3          3          0          0          1          0          1          1          0          1          0
  intobj           :       0.00       0.00          0          0          0          0          0          0          0          0          0          0          0
  mcf              :       0.01       0.00          1          1          0          0          0          0          0          0          0          0          0
  minor            :       0.02       0.00          0          0          0          0          0          0          0          0          0          0          0
  mixing           :       0.01       0.00       4414         22          0          0          0          0          0          0          0          0          0
  oddcycle         :       0.00       0.00          0          0          0          0          0          0          0          0          0          0          0
  rapidlearning    :       0.01       0.00          0          0          0          0          0          0          0          0          0          0          0
  rlt              :       0.00       0.00         10         10          0          0          0          0          0          0          0          0          0
  zerohalf         :      22.57       0.00       4074         20          0          0      34048     590717          0     106890     106890          0          0
Cutselectors       :   ExecTime  SetupTime      Calls  RootCalls   Selected     Forced   Filtered  RootSelec   RootForc   RootFilt 
  hybrid           :       0.44       0.00      31421         21     134329          0     485987        164          0         38
Pricers            :   ExecTime  SetupTime      Calls       Vars
  problem variables:       0.00          -          0          0
Branching Rules    :   ExecTime  SetupTime   BranchLP  BranchExt   BranchPS    Cutoffs    DomReds       Cuts      Conss   Children
  allfullstrong    :       0.00       0.00          0          0          0          0          0          0          0          0
  cloud            :       0.00       0.00          0          0          0          0          0          0          0          0
  distribution     :       0.00       0.00          0          0          0          0          0          0          0          0
  fullstrong       :       0.00       0.00          0          0          0          0          0          0          0          0
  inference        :       0.00       0.00          0          0          0          0          0          0          0          0
  leastinf         :       0.00       0.00          0          0          0          0          0          0          0          0
  lookahead        :       0.00       0.00          0          0          0          0          0          0          0          0
  mostinf          :       0.00       0.00          0          0          0          0          0          0          0          0
  multaggr         :       0.00       0.00          0          0          0          0          0          0          0          0
  nodereopt        :       0.00       0.00          0          0          0          0          0          0          0          0
  pscost           :       0.00       0.00          0          0          0          0          0          0          0          0
  random           :       0.00       0.00          0          0          0          0          0          0          0          0
  relpscost        :      42.42       0.00      97968          0          0          0       3311          0       1479     193508
  vanillafullstrong:       0.00       0.00          0          0          0          0          0          0          0          0
Primal Heuristics  :   ExecTime  SetupTime      Calls      Found       Best
  LP solutions     :       0.06          -          -         15         15
  relax solutions  :       0.00          -          -          0          0
  pseudo solutions :       0.00          -          -          0          0
  strong branching :       0.03          -          -          1          1
  actconsdiving    :       0.00       0.00          0          0          0
  adaptivediving   :       2.57       0.00         49          0          0
  alns             :       1.40       0.00         17          1          1
  bound            :       0.00       0.00          0          0          0
  clique           :       0.00       0.00          1          0          0
  coefdiving       :       0.00       0.00          0          0          0
  completesol      :       0.00       0.00          0          0          0
  conflictdiving   :      30.32       0.00        566          0          0
  crossover        :       0.70       0.00          7          1          1
  dins             :       0.00       0.00          0          0          0
  distributiondivin:      52.82       0.00        566          0          0
  dps              :       0.00       0.00          0          0          0
  dualval          :       0.00       0.00          0          0          0
  farkasdiving     :       0.02       0.00          0          0          0
  feaspump         :       0.11       0.00          1          1          1
  fixandinfer      :       0.00       0.00          0          0          0
  fracdiving       :      32.99       0.00        566          0          0
  gins             :       0.12       0.00          0          0          0
  guideddiving     :      30.27       0.00        566          2          2
  indicator        :       0.06       0.00          0          0          0
  indicatordiving  :       0.00       0.00          0          0          0
  intdiving        :       0.00       0.00          0          0          0
  intshifting      :       0.18       0.00         49          0          0
  linesearchdiving :      31.22       0.00        566          0          0
  localbranching   :       0.00       0.00          0          0          0
  locks            :       0.01       0.00          1          0          0
  lpface           :       0.10       0.00          0          0          0
  mpec             :      60.24       0.00          2          0          0
  multistart       :       0.00       0.00          0          0          0
  mutation         :       0.00       0.00          0          0          0
  nlpdiving        :      13.82       0.00          8          0          0
  objpscostdiving  :      44.23       0.00        104         13          0
  octane           :       0.00       0.00          0          0          0
  ofins            :       0.11       0.00          0          0          0
  oneopt           :       0.08       0.00         31          0          0
  padm             :       0.00       0.00          0          0          0
  proximity        :       0.00       0.00          0          0          0
  pscostdiving     :      38.16       0.00        566          3          3
  randrounding     :       0.20       0.00       3156          0          0
  rens             :       0.00       0.00          0          0          0
  reoptsols        :       0.00       0.00          0          0          0
  repair           :       0.00       0.00          0          0          0
  rins             :       6.74       0.00          6          2          1
  rootsoldiving    :      37.36       0.00         62          2          0
  rounding         :       0.84       0.00       5041          0          0
  shiftandpropagate:       0.00       0.00          0          0          0
  shifting         :      37.22       0.00      13169          5          5
  simplerounding   :       0.08       0.00          0          0          0
  subnlp           :     123.47       0.00          0          0          0
  trivial          :       0.00       0.00          2          2          2
  trivialnegation  :       0.00       0.00          0          0          0
  trustregion      :       0.00       0.00          0          0          0
  trysol           :       0.24       0.00          0          0          0
  twoopt           :       0.00       0.00          0          0          0
  undercover       :       2.26       0.00          1          0          0
  vbounds          :       0.00       0.00          0          0          0
  veclendiving     :      29.94       0.00        566          0          0
  zeroobj          :       0.00       0.00          0          0          0
  zirounding       :       0.40       0.00       1000          0          0
  other solutions  :          -          -          -          0          -
Diving (single)    :      Calls      Nodes   LP Iters Backtracks  Conflicts   MinDepth   MaxDepth   AvgDepth  RoundSols  NLeafSols  MinSolDpt  MaxSolDpt  AvgSolDpt
  actconsdiving    :          0          -          -          -          -          -          -          -          -          -          -          -          -
  coefdiving       :          0          -          -          -          -          -          -          -          -          -          -          -          -
  conflictdiving   :        566      16941     422169        614      12762         36         66       47.7          0          -          -          -          -
  distributiondivin:        566      12997     534624        646       6567         32         54       40.2          0          -          -          -          -
  farkasdiving     :          0          -          -          -          -          -          -          -          -          -          -          -          -
  fracdiving       :        566      46137     467186        582       6310         43        478       99.0          0          -          -          -          -
  guideddiving     :        566      41014     433450        435       5681         47        379       90.0          0          2         74         75       74.5
  indicatordiving  :          0          -          -          -          -          -          -          -          -          -          -          -          -
  linesearchdiving :        566      14794     491830        711      11499         31         66       43.3          0          -          -          -          -
  pscostdiving     :        566      15723     552823        576       7815         36         61       45.2          0          3         48         58       54.3
  veclendiving     :        566      16158     449182        607      16354         38         65       46.0          0          -          -          -          -
Diving (adaptive)  :      Calls      Nodes   LP Iters Backtracks  Conflicts   MinDepth   MaxDepth   AvgDepth  RoundSols  NLeafSols  MinSolDpt  MaxSolDpt  AvgSolDpt
  actconsdiving    :         10        246       9672         12        126         40         43       41.0          0          -          -          -          -
  coefdiving       :         19        550      13114         19        599         37         61       45.7          0          -          -          -          -
  conflictdiving   :          0          -          -          -          -          -          -          -          -          -          -          -          -
  distributiondivin:          0          -          -          -          -          -          -          -          -          -          -          -          -
  farkasdiving     :          0          -          -          -          -          -          -          -          -          -          -          -          -
  fracdiving       :          4        241       2783          2         18         44        131       77.5          0          -          -          -          -
  guideddiving     :          5        441       4180          7         57         64        229      105.6          0          -          -          -          -
  indicatordiving  :          0          -          -          -          -          -          -          -          -          -          -          -          -
  linesearchdiving :          0          -          -          -          -          -          -          -          -          -          -          -          -
  pscostdiving     :          4        117       3026          4         36         46         53       48.8          0          -          -          -          -
  veclendiving     :          7        196       5876          7        193         41         53       44.6          0          -          -          -          -
Neighborhoods      :      Calls  SetupTime  SolveTime SolveNodes       Sols       Best       Exp3  EpsGreedy        UCB TgtFixRate  Opt  Inf Node Stal  Sol  Usr Othr Actv
  rens             :          2       0.10       0.01          0          0          0    0.00000   -1.00000    0.54809      0.550    0    2    0    0    0    0    0    1
  rins             :          2       0.09       0.06         11          0          0    0.00000   -1.00000    0.53410      0.550    0    2    0    0    0    0    0    1
  mutation         :          2       0.10       0.02          4          0          0    0.00000   -1.00000    0.54399      0.550    0    2    0    0    0    0    0    1
  localbranching   :          2       0.04       0.05         45          0          0    0.00000   -1.00000    0.49088      0.550    0    2    0    0    0    0    0    1
  crossover        :          2       0.05       0.02         31          0          0    0.00000   -1.00000    0.50868      0.550    0    2    0    0    0    0    0    1
  proximity        :          2       0.05       0.08         79          0          0    0.00000   -1.00000    0.43629      0.850    0    1    0    1    0    0    0    1
  zeroobjective    :          2       0.03       0.06         50          0          0    0.00000   -1.00000    0.47309      0.850    0    1    0    1    0    0    0    1
  dins             :          3       0.12       0.45        542          1          1    0.00000   -1.00000    0.48734      0.662    1    1    0    1    0    0    0    1
  trustregion      :          0       0.00       0.00          0          0          0    0.00000   -1.00000    1.00000      0.900    0    0    0    0    0    0    0    0
Expressions        :   #IntEval  IntEvalTi   #RevProp  RevPropTi    DomReds    Cutoffs  #Estimate  EstimTime  Branching  #Simplify SimplifyTi Simplified
  pow              :          0       0.00          0       0.00          0          0          0       0.00          0          0       0.00          0
  prod             :       6320       0.01          0       0.00          0          0          0       0.00          0       4687       0.00          0
  sum              :          8       0.00          2       0.00          0          0          0       0.00          0          3       0.00          2
  var              :       5476       0.00          0       0.00          0          0          0       0.00          0      11145       0.01          0
  varidx           :          0       0.00          0       0.00          0          0          0       0.00          0          0       0.00          0
LP                 :       Time      Calls Iterations  Iter/call   Iter/sec  Time-0-It Calls-0-It    ItLimit
  primal LP        :     118.37      14678          0       0.00       0.00     118.34      14678
  dual LP          :    2587.65     216352   17811501      89.63    6883.27       5.66      17620
  lex dual LP      :       0.00          0          0       0.00          -
  barrier LP       :       0.00          0          0       0.00          -       0.00          0
  resolve instable :       0.00          0          0       0.00          -
  diving/probing LP:     278.44      17435    4079494     233.98   14651.25
  strong branching :      18.87       2732     265216      97.08   14054.90          -          -         42
    (at root node) :          -         19       2536     133.47          -
  conflict analysis:       3.42       2941      28722       9.77    8398.25
NLP relaxation     :
  solve time       :      13.82 (8 calls)
  convexity        :  nonconvex (4 linear rows, 0 convex ineq., 0 nonconvex ineq., 1527 nonlinear eq. or two-sided ineq.)
NLP Solvers        :  #Problems  ProblemTi    #Solves  SolveTime      #Iter  Time/Iter      #Okay #TimeLimit #IterLimit #LObjLimit #Interrupt  #NumError #EvalError  #OutOfMem #LicenseEr #OtherTerm   #GlobOpt    #LocOpt  #Feasible #LocInfeas #GlobInfea #Unbounded   #Unknown
  ipopt            :          3       6.24         13      74.14        530       0.14         13          0          0          0          0          0          0          0          0          0          0          0          0          5          0          0          8
B&B Tree           :
  number of runs   :          1
  nodes            :     166109 (96754 internal, 69355 leaves)
  feasible leaves  :         15
  infeas. leaves   :         11
  objective leaves :      69328
  nodes (total)    :     166109 (96754 internal, 69355 leaves)
  nodes left       :      27332
  max depth        :         50
  max depth (total):         50
  backtracks       :      35644 (21.5%)
  early backtracks :          0 (0.0%)
  nodes exc. ref.  :          0 (0.0%)
  delayed cutoffs  :          0
  repropagations   :         38 (38 domain reductions, 0 cutoffs)
  avg switch length:       4.74
  switching time   :     144.95
Estim. Tree Size   :     332354
Estimation Tree    : 193509 nodes (166177 visited, 96754 internal, 69423 leaves, 27332 open), weight: 0.0000 completed 0.1034
Estimations        :      estim      value      trend resolution     smooth
  wbe              : 13856084463          -          -          -          -
  tree-profile     :         -1          -          -          -          -
  gap              :    1469661    0.78495    0.00004        128    1664210
  tree-weight      :     332354    0.00001    0.00000        128     331951
  leaf-frequency   :     332354    0.41776   -0.00000        128     396702
  ssg              :    5496644    0.83678   -0.00004        128    5703369
  open-nodes       :     332354 27332.00000   21.62559        128     331951
Root Node          :
  First LP value   : -1.00000000000000e+00
  First LP Iters   :       1045 (11611.11 Iter/sec)
  First LP Time    :       0.09
  Final Dual Bound : -9.42624878665508e-01
  Final Root Iters :       1624
  Root LP Estimate : -5.07083902515166e-01
Solution           :
  Solutions found  :         48 (32 improvements)
  First Solution   : +1.00000000000000e+05   (in run 1, after 0 nodes, 0.04 seconds, depth 0, found by <trivial>)
  Gap First Sol.   :   infinite
  Gap Last Sol.    :      31.54 %
  Primal Bound     : -5.81012658227848e-01   (in run 1, after 76342 nodes, 1522.16 seconds, depth 20, found by <alns>)
  Dual Bound       : -7.40189873417723e-01
  Gap              :      27.40 %
Integrals          :      Total       Avg%
  primal-dual      :   89745.01      24.93
  primal-ref       :          -          - (not evaluated)
  dual-ref         :          -          - (not evaluated)
